DIMACS_lns/graph-1000-430.col
p edge 1000 1841
e 1 927
e 1 79
e 1 715
e 1 842
e 4 521
e 4 793
e 4 456
e 4 783
e 4 923
e 4 982
e 6 642
e 6 244
e 6 330
e 6 161
e 6 747
e 8 879
e 8 480
e 8 27
e 8 379
e 9 849
e 9 262
e 9 357
e 9 564
e 10 219
e 10 175
e 10 286
e 11 326
e 11 553
e 11 788
e 11 20
e 11 563
e 12 382
e 12 188
e 12 586
e 12 626
e 13 898
e 13 850
e 13 705
e 14 564
e 14 714
e 14 450
e 14 123
e 14 237
e 15 953
e 15 187
e 15 410
e 15 884
e 15 123
e 16 839
e 16 275
e 16 112
e 17 51
e 17 305
e 17 158
e 18 901
e 18 539
e 18 186
e 18 425
e 18 647
e 18 213
e 19 129
e 19 344
e 19 355
e 19 519
e 19 579
e 20 785
e 20 462
e 20 45
e 20 507
e 23 868
e 23 157
e 23 242
e 24 216
e 24 325
e 24 752
e 24 397
e 25 294
e 25 723
e 25 39
e 27 575
e 27 104
e 28 692
e 28 848
e 28 100
e 28 556
e 28 709
e 29 515
e 29 793
e 29 922
e 30 358
e 30 854
e 30 134
e 30 736
e 31 985
e 31 594
e 31 333
e 31 534
e 31 434
e 32 183
e 32 899
e 32 887
e 32 891
e 33 291
e 33 466
e 33 140
e 33 219
e 34 109
e 34 336
e 34 776
e 34 579
e 34 130
e 34 529
e 35 82
e 35 273
e 35 265
e 35 916
e 36 104
e 36 966
e 36 895
e 37 46
e 37 379
e 37 836
e 37 65
e 38 96
e 38 850
e 38 69
e 38 338
e 39 120
e 39 920
e 39 299
e 39 767
e 39 370
e 40 190
e 40 291
e 40 527
e 40 898
e 41 805
e 41 799
e 41 905
e 41 916
e 42 825
e 42 663
e 42 625
e 42 793
e 44 860
e 44 172
e 44 163
e 44 690
e 45 302
e 45 395
e 45 455
e 46 303
e 46 497
e 46 169
e 47 984
e 47 933
e 47 826
e 48 576
e 48 573
e 48 563
e 48 537
e 50 589
e 50 675
e 50 498
e 50 450
e 50 214
e 50 190
e 50 192
e 51 581
e 51 885
e 51 338
e 51 224
e 52 727
e 52 605
e 52 888
e 52 404
e 53 952
e 53 377
e 53 801
e 53 576
e 53 169
e 54 679
e 54 538
e 54 783
e 54 658
e 54 802
e 54 485
e 55 555
e 55 850
e 55 613
e 55 728
e 56 499
e 56 764
e 56 748
e 56 190
e 56 644
e 57 465
e 57 552
e 57 669
e 57 167
e 57 979
e 57 568
e 57 876
e 57 783
e 57 164
e 57 288
e 59 172
e 59 615
e 59 702
e 59 698
e 62 244
e 62 528
e 62 962
e 62 91
e 62 677
e 63 599
e 63 856
e 63 183
e 63 775
e 64 413
e 64 438
e 64 74
e 64 625
e 64 852
e 65 209
e 65 734
e 65 363
e 65 358
e 66 768
e 66 753
e 66 814
e 68 935
e 68 802
e 68 626
e 68 783
e 68 474
e 68 869
e 68 638
e 68 787
e 69 820
e 69 155
e 69 107
e 69 916
e 70 973
e 70 351
e 70 453
e 71 83
e 71 948
e 71 515
e 71 647
e 71 327
e 71 362
e 71 951
e 72 107
e 72 449
e 72 189
e 72 611
e 73 741
e 73 620
e 73 856
e 74 396
e 74 903
e 75 376
e 75 689
e 75 741
e 75 160
e 77 142
e 77 472
e 77 123
e 77 682
e 77 350
e 77 430
e 77 152
e 77 398
e 78 598
e 78 732
e 78 580
e 78 345
e 79 364
e 79 922
e 79 463
e 80 323
e 80 121
e 80 583
e 81 565
e 81 541
e 81 874
e 82 801
e 82 135
e 82 130
e 83 542
e 83 853
e 83 119
e 85 239
e 85 125
e 85 445
e 86 292
e 86 89
e 86 366
e 86 417
e 86 853
e 86 214
e 87 382
e 87 431
e 87 852
e 89 228
e 89 679
e 89 793
e 90 765
e 90 647
e 90 103
e 91 826
e 91 768
e 91 952
e 91 146
e 91 366
e 91 516
e 93 201
e 93 652
e 93 925
e 93 325
e 94 764
e 94 685
e 94 792
e 94 649
e 94 487
e 94 910
e 94 474
e 96 805
e 96 737
e 98 735
e 98 924
e 98 841
e 98 596
e 98 676
e 98 339
e 99 881
e 99 506
e 99 305
e 99 766
e 100 267
e 100 807
e 100 487
e 100 612
e 103 444
e 103 418
e 103 961
e 104 319
e 104 504
e 104 774
e 104 770
e 104 505
e 107 378
e 107 128
e 107 137
e 107 314
e 107 971
e 107 624
e 107 907
e 109 393
e 109 950
e 110 214
e 110 925
e 110 444
e 110 655
e 110 364
e 112 982
e 112 427
e 113 789
e 113 464
e 113 929
e 115 206
e 115 517
e 115 594
e 115 751
e 116 479
e 116 312
e 116 275
e 116 453
e 117 212
e 117 868
e 117 619
e 117 584
e 117 585
e 118 410
e 118 791
e 118 177
e 119 343
e 119 708
e 120 759
e 120 523
e 120 475
e 121 927
e 121 681
e 121 247
e 121 307
e 122 798
e 122 925
e 122 613
e 122 511
e 123 550
e 123 473
e 125 849
e 125 827
e 125 848
e 126 258
e 126 693
e 126 142
e 127 355
e 127 592
e 127 743
e 127 849
e 127 525
e 127 378
e 128 138
e 128 266
e 128 908
e 128 551
e 128 581
e 129 970
e 129 528
e 129 540
e 129 631
e 130 480
e 130 148
e 130 562
e 130 689
e 130 594
e 130 953
e 130 811
e 132 262
e 132 152
e 132 979
e 133 595
e 133 432
e 133 556
e 134 562
e 134 802
e 135 551
e 135 254
e 136 866
e 136 505
e 136 723
e 136 697
e 136 798
e 136 964
e 136 321
e 137 895
e 137 997
e 137 657
e 138 803
e 138 381
e 138 321
e 138 370
e 138 905
e 138 378
e 139 961
e 139 901
e 139 636
e 139 908
e 139 804
e 139 459
e 140 307
e 140 825
e 140 583
e 141 817
e 141 884
e 141 708
e 141 605
e 141 915
e 142 174
e 142 144
e 142 353
e 142 905
e 142 696
e 142 523
e 142 343
e 143 601
e 143 317
e 143 800
e 144 1000
e 144 368
e 146 926
e 146 934
e 146 707
e 147 337
e 147 708
e 147 427
e 147 992
e 148 903
e 148 789
e 148 323
e 148 216
e 149 955
e 149 388
e 149 828
e 149 692
e 149 585
e 149 797
e 149 462
e 150 769
e 150 815
e 150 803
e 150 536
e 152 992
e 152 998
e 152 895
e 152 804
e 153 364
e 153 851
e 153 317
e 153 451
e 154 377
e 154 912
e 154 961
e 154 925
e 155 237
e 155 449
e 155 896
e 155 864
e 155 179
e 155 930
e 155 568
e 157 351
e 157 541
e 157 991
e 157 584
e 158 186
e 158 866
e 158 611
e 158 874
e 160 299
e 160 217
e 160 781
e 160 386
e 160 732
e 160 746
e 160 511
e 161 631
e 161 181
e 161 528
e 161 485
e 162 165
e 162 760
e 162 249
e 163 780
e 163 803
e 163 933
e 163 807
e 163 819
e 163 890
e 164 369
e 164 352
e 164 629
e 164 332
e 165 218
e 165 549
e 167 219
e 167 284
e 167 305
e 167 950
e 169 541
e 169 692
e 169 841
e 169 636
e 170 834
e 170 941
e 170 731
e 170 601
e 170 477
e 171 221
e 171 306
e 171 658
e 171 991
e 171 579
e 171 417
e 172 605
e 172 232
e 172 905
e 172 424
e 173 954
e 173 349
e 173 635
e 173 707
e 173 528
e 173 413
e 174 770
e 174 940
e 174 262
e 174 349
e 174 225
e 175 569
e 175 848
e 177 496
e 177 219
e 177 788
e 177 896
e 177 566
e 177 451
e 178 354
e 178 852
e 178 513
e 178 638
e 178 866
e 179 347
e 179 247
e 179 188
e 180 452
e 180 298
e 180 624
e 180 545
e 180 677
e 181 201
e 181 888
e 181 312
e 181 230
e 181 913
e 183 300
e 183 823
e 183 340
e 183 358
e 184 507
e 184 465
e 184 729
e 185 899
e 185 760
e 185 880
e 185 978
e 185 923
e 186 452
e 186 704
e 186 659
e 186 718
e 187 764
e 187 381
e 187 929
e 188 309
e 188 631
e 188 534
e 188 494
e 188 618
e 189 587
e 189 718
e 189 900
e 189 343
e 189 676
e 189 820
e 190 382
e 190 569
e 190 854
e 190 273
e 192 517
e 192 786
e 192 617
e 192 273
e 192 771
e 192 346
e 192 626
e 194 787
e 194 836
e 194 568
e 196 974
e 196 985
e 196 539
e 196 745
e 198 815
e 198 540
e 198 689
e 198 631
e 198 464
e 198 969
e 198 759
e 199 318
e 199 454
e 199 913
e 201 770
e 202 472
e 202 784
e 202 770
e 202 217
e 204 619
e 204 812
e 204 951
e 204 876
e 204 575
e 204 338
e 206 770
e 206 948
e 206 924
e 206 313
e 207 960
e 207 410
e 207 612
e 209 539
e 209 417
e 209 510
e 212 733
e 212 686
e 212 611
e 212 445
e 212 643
e 213 339
e 213 592
e 213 609
e 213 626
e 214 240
e 214 253
e 214 868
e 214 320
e 214 780
e 214 479
e 216 917
e 216 744
e 217 272
e 217 563
e 218 284
e 218 454
e 218 355
e 219 845
e 219 733
e 219 936
e 219 386
e 221 746
e 221 565
e 221 515
e 224 970
e 224 295
e 225 950
e 225 388
e 225 229
e 225 624
e 225 464
e 226 644
e 226 338
e 226 805
e 226 294
e 226 472
e 227 253
e 227 800
e 227 608
e 227 845
e 227 735
e 227 834
e 228 483
e 228 495
e 228 545
e 228 394
e 228 960
e 229 320
e 229 267
e 230 296
e 230 292
e 230 830
e 231 576
e 231 858
e 231 977
e 232 696
e 232 275
e 232 327
e 232 801
e 232 360
e 232 277
e 233 936
e 233 549
e 233 432
e 235 911
e 235 636
e 235 457
e 235 513
e 237 614
e 237 609
e 237 952
e 238 407
e 238 466
e 238 471
e 238 534
e 238 604
e 239 935
e 239 966
e 239 930
e 240 550
e 240 505
e 241 345
e 241 618
e 241 729
e 242 696
e 242 820
e 244 900
e 244 380
e 244 942
e 244 819
e 245 250
e 245 828
e 245 553
e 245 893
e 245 437
e 246 1000
e 246 677
e 246 306
e 247 781
e 247 671
e 247 463
e 247 275
e 247 764
e 247 920
e 248 658
e 248 816
e 248 909
e 248 744
e 249 291
e 249 353
e 249 569
e 249 455
e 249 328
e 249 697
e 250 593
e 250 555
e 250 385
e 251 941
e 251 901
e 251 974
e 252 554
e 252 960
e 252 941
e 253 910
e 254 263
e 254 543
e 256 319
e 256 966
e 256 420
e 256 352
e 256 963
e 256 987
e 257 431
e 257 554
e 257 895
e 257 722
e 257 635
e 257 418
e 258 344
e 258 512
e 258 410
e 258 452
e 258 860
e 259 325
e 259 895
e 259 763
e 259 911
e 259 886
e 259 363
e 260 448
e 260 386
e 260 951
e 260 743
e 261 425
e 261 366
e 261 807
e 261 331
e 261 431
e 261 376
e 262 643
e 262 675
e 263 544
e 263 305
e 263 765
e 263 961
e 263 941
e 264 339
e 264 944
e 264 432
e 265 307
e 265 562
e 265 610
e 265 550
e 266 288
e 266 760
e 266 409
e 266 554
e 266 541
e 267 755
e 270 885
e 270 466
e 270 911
e 270 576
e 270 714
e 271 698
e 271 575
e 271 477
e 271 445
e 271 856
e 271 641
e 271 389
e 271 387
e 272 883
e 272 291
e 272 510
e 273 625
e 273 529
e 273 416
e 273 897
e 274 366
e 274 891
e 274 567
e 275 452
e 275 470
e 277 856
e 277 504
e 277 617
e 277 459
e 277 415
e 278 759
e 278 282
e 278 786
e 282 762
e 282 440
e 282 681
e 283 655
e 283 876
e 283 776
e 284 577
e 284 417
e 284 748
e 284 714
e 286 596
e 286 464
e 286 310
e 286 729
e 288 356
e 288 543
e 288 909
e 288 555
e 288 712
e 290 856
e 290 382
e 290 787
e 291 521
e 291 554
e 291 999
e 292 364
e 292 964
e 292 845
e 292 677
e 292 427
e 294 839
e 294 983
e 294 552
e 294 751
e 294 497
e 294 405
e 294 950
e 295 905
e 295 541
e 295 615
e 295 608
e 296 999
e 296 546
e 296 637
e 296 753
e 298 936
e 298 918
e 299 516
e 300 918
e 300 524
e 300 841
e 300 810
e 300 792
e 300 718
e 300 660
e 300 592
e 300 564
e 302 635
e 302 858
e 302 675
e 302 921
e 303 562
e 303 574
e 305 354
e 305 477
e 306 727
e 307 725
e 307 362
e 307 799
e 309 733
e 309 404
e 309 555
e 310 511
e 310 420
e 310 613
e 312 464
e 312 327
e 312 425
e 312 471
e 313 609
e 313 676
e 313 437
e 313 987
e 313 682
e 313 360
e 313 864
e 314 775
e 314 681
e 314 888
e 314 413
e 316 965
e 316 634
e 316 598
e 317 807
e 317 930
e 318 486
e 318 457
e 319 816
e 319 910
e 320 621
e 320 563
e 320 527
e 321 880
e 321 363
e 323 680
e 323 661
e 325 1000
e 325 825
e 325 934
e 326 767
e 326 537
e 327 957
e 328 570
e 328 895
e 329 479
e 329 450
e 329 571
e 329 474
e 330 737
e 330 463
e 330 339
e 330 955
e 330 542
e 331 715
e 331 445
e 331 675
e 332 798
e 332 570
e 332 543
e 333 538
e 333 448
e 333 610
e 336 448
e 336 496
e 336 797
e 336 583
e 337 660
e 337 955
e 337 924
e 338 731
e 338 414
e 339 694
e 339 460
e 339 595
e 339 463
e 339 692
e 340 972
e 340 719
e 340 826
e 343 715
e 343 375
e 344 409
e 344 583
e 344 714
e 344 405
e 345 398
e 345 664
e 345 483
e 345 770
e 345 766
e 346 551
e 346 506
e 346 685
e 347 451
e 347 842
e 347 485
e 347 589
e 349 727
e 349 869
e 349 571
e 349 551
e 350 961
e 350 915
e 350 498
e 350 979
e 351 407
e 352 536
e 352 834
e 352 922
e 352 475
e 353 586
e 353 411
e 353 580
e 354 536
e 354 847
e 354 933
e 355 877
e 355 749
e 355 506
e 355 535
e 356 543
e 356 411
e 357 715
e 357 512
e 360 744
e 360 879
e 360 762
e 360 712
e 360 404
e 360 919
e 362 444
e 362 792
e 362 775
e 364 557
e 366 985
e 368 911
e 368 715
e 368 587
e 369 456
e 369 603
e 369 689
e 370 634
e 370 697
e 370 789
e 371 479
e 371 601
e 371 445
e 375 380
e 375 927
e 375 993
e 375 802
e 376 764
e 376 896
e 377 465
e 377 507
e 377 736
e 377 455
e 377 647
e 377 555
e 378 556
e 379 935
e 379 477
e 380 781
e 381 576
e 381 752
e 381 812
e 382 695
e 385 509
e 385 649
e 385 760
e 385 994
e 386 703
e 387 667
e 387 950
e 387 704
e 387 515
e 388 644
e 388 581
e 388 820
e 389 553
e 389 659
e 389 789
e 389 769
e 389 788
e 393 411
e 393 898
e 393 671
e 394 621
e 394 422
e 395 652
e 395 546
e 395 671
e 395 746
e 395 537
e 396 537
e 396 810
e 397 916
e 397 517
e 397 917
e 398 595
e 398 617
e 398 439
e 399 485
e 399 760
e 399 604
e 400 925
e 400 686
e 400 566
e 400 534
e 400 783
e 404 713
e 404 695
e 404 886
e 405 956
e 406 878
e 406 989
e 406 565
e 406 870
e 406 767
e 406 971
e 407 652
e 409 438
e 409 905
e 409 860
e 410 454
e 410 890
e 410 994
e 410 564
e 411 974
e 411 749
e 413 426
e 414 960
e 414 609
e 415 806
e 415 667
e 415 601
e 415 770
e 415 633
e 415 636
e 415 457
e 416 847
e 416 765
e 417 585
e 417 720
e 417 998
e 417 926
e 418 472
e 418 615
e 420 669
e 420 519
e 421 729
e 421 635
e 421 693
e 422 898
e 422 825
e 422 941
e 422 529
e 424 868
e 424 498
e 424 814
e 425 665
e 425 801
e 425 664
e 425 541
e 426 656
e 426 649
e 426 888
e 427 838
e 427 510
e 429 634
e 429 452
e 429 741
e 429 646
e 429 521
e 430 999
e 430 716
e 431 984
e 431 702
e 431 812
e 431 719
e 432 453
e 432 528
e 432 869
e 432 883
e 434 769
e 434 784
e 434 851
e 435 869
e 435 444
e 435 667
e 435 454
e 437 580
e 437 714
e 437 763
e 438 542
e 438 806
e 438 805
e 438 903
e 439 608
e 439 660
e 439 838
e 439 787
e 440 544
e 440 917
e 440 805
e 442 915
e 442 529
e 442 979
e 444 858
e 444 577
e 444 886
e 445 746
e 445 618
e 445 965
e 448 852
e 449 993
e 451 913
e 451 504
e 451 619
e 452 753
e 453 950
e 453 474
e 453 463
e 454 494
e 454 928
e 454 702
e 454 620
e 454 963
e 454 739
e 455 942
e 455 905
e 456 830
e 456 460
e 459 767
e 459 486
e 460 575
e 462 682
e 462 874
e 462 716
e 462 631
e 462 551
e 463 764
e 463 930
e 464 939
e 464 874
e 464 487
e 465 878
e 466 784
e 466 859
e 466 823
e 468 624
e 468 762
e 468 562
e 468 878
e 470 511
e 470 615
e 470 658
e 471 599
e 471 930
e 471 568
e 471 964
e 472 577
e 472 782
e 472 763
e 473 705
e 473 973
e 475 801
e 475 930
e 477 820
e 477 616
e 477 956
e 480 914
e 480 515
e 480 643
e 480 486
e 483 697
e 483 494
e 484 789
e 484 574
e 484 743
e 486 660
e 486 898
e 487 661
e 487 929
e 494 932
e 494 910
e 495 881
e 495 614
e 495 921
e 495 513
e 496 739
e 497 629
e 497 920
e 498 768
e 498 650
e 498 874
e 499 874
e 499 591
e 499 893
e 504 716
e 504 987
e 504 839
e 505 887
e 505 588
e 505 746
e 505 675
e 506 912
e 506 507
e 507 896
e 507 939
e 507 995
e 509 541
e 509 974
e 510 961
e 510 694
e 510 633
e 511 540
e 511 656
e 511 922
e 511 623
e 512 978
e 515 940
e 515 850
e 516 801
e 516 600
e 517 647
e 517 774
e 519 749
e 519 757
e 520 781
e 520 715
e 520 744
e 521 638
e 521 624
e 521 525
e 523 880
e 523 595
e 524 823
e 524 878
e 524 897
e 524 605
e 525 967
e 525 919
e 527 633
e 528 953
e 534 739
e 534 762
e 535 612
e 535 668
e 535 743
e 535 977
e 536 800
e 536 567
e 536 617
e 538 848
e 538 730
e 538 880
e 538 665
e 539 729
e 539 576
e 539 985
e 540 780
e 542 749
e 544 913
e 545 612
e 545 944
e 546 595
e 546 554
e 546 977
e 546 736
e 549 693
e 549 944
e 550 842
e 550 869
e 550 601
e 550 940
e 551 856
e 551 817
e 552 850
e 553 715
e 555 759
e 556 785
e 556 847
e 556 586
e 557 792
e 557 589
e 562 593
e 562 671
e 563 845
e 563 638
e 563 685
e 564 787
e 564 669
e 564 971
e 565 566
e 565 997
e 565 780
e 565 579
e 566 603
e 566 839
e 567 747
e 567 984
e 567 614
e 568 827
e 568 905
e 570 656
e 571 663
e 571 657
e 571 601
e 571 963
e 573 975
e 573 936
e 574 821
e 575 817
e 575 779
e 575 860
e 575 850
e 575 931
e 576 593
e 577 779
e 577 786
e 579 747
e 579 757
e 579 889
e 580 737
e 581 980
e 581 823
e 583 600
e 583 752
e 583 975
e 584 675
e 584 888
e 585 834
e 586 800
e 586 993
e 587 730
e 587 720
e 587 787
e 588 749
e 588 600
e 588 886
e 591 664
e 591 851
e 591 601
e 592 937
e 593 605
e 594 812
e 594 827
e 596 871
e 596 942
e 598 928
e 599 732
e 600 990
e 600 900
e 601 981
e 601 915
e 603 819
e 604 749
e 604 896
e 604 786
e 604 759
e 605 871
e 609 765
e 609 615
e 610 744
e 610 669
e 610 951
e 611 931
e 611 834
e 612 769
e 612 698
e 613 859
e 613 916
e 613 951
e 615 743
e 616 985
e 616 693
e 616 981
e 617 784
e 617 709
e 618 874
e 619 977
e 620 816
e 621 679
e 621 929
e 623 931
e 623 659
e 625 745
e 625 963
e 629 973
e 631 791
e 631 850
e 633 765
e 634 652
e 634 718
e 634 711
e 635 900
e 635 890
e 635 769
e 635 797
e 636 790
e 637 668
e 637 990
e 638 847
e 641 801
e 641 897
e 642 983
e 642 658
e 643 730
e 644 675
e 646 694
e 646 970
e 650 918
e 650 928
e 652 900
e 654 983
e 654 745
e 654 760
e 654 866
e 655 771
e 656 913
e 656 850
e 657 870
e 657 932
e 657 991
e 659 680
e 660 799
e 661 760
e 661 996
e 661 910
e 663 961
e 663 807
e 663 969
e 663 996
e 664 838
e 664 779
e 664 767
e 665 972
e 668 879
e 669 815
e 669 972
e 669 799
e 669 852
e 673 844
e 673 914
e 673 913
e 675 910
e 675 935
e 675 849
e 676 932
e 676 926
e 676 806
e 677 940
e 677 860
e 679 810
e 679 816
e 680 937
e 681 908
e 682 827
e 685 977
e 685 729
e 686 932
e 686 930
e 686 1000
e 686 834
e 688 696
e 688 774
e 688 826
e 689 844
e 689 923
e 690 964
e 690 899
e 690 828
e 693 897
e 693 720
e 694 735
e 695 790
e 697 1000
e 697 845
e 697 910
e 698 895
e 698 929
e 702 915
e 702 816
e 702 767
e 702 811
e 703 890
e 703 794
e 704 883
e 704 906
e 705 712
e 705 757
e 707 967
e 709 957
e 709 889
e 711 723
e 711 763
e 713 973
e 713 834
e 713 989
e 715 794
e 715 877
e 716 733
e 716 821
e 716 751
e 716 782
e 719 839
e 722 912
e 722 747
e 725 903
e 725 771
e 725 997
e 727 920
e 728 960
e 728 836
e 730 776
e 731 956
e 733 823
e 733 771
e 734 858
e 734 989
e 735 913
e 736 928
e 737 850
e 739 788
e 739 881
e 741 889
e 745 756
e 746 965
e 746 973
e 746 909
e 748 933
e 748 788
e 749 844
e 752 975
e 752 860
e 755 885
e 755 996
e 756 891
e 756 759
e 757 991
e 759 914
e 759 999
e 759 853
e 763 974
e 765 920
e 766 775
e 766 816
e 766 975
e 767 774
e 768 871
e 769 930
e 771 915
e 774 803
e 779 847
e 779 916
e 780 800
e 781 828
e 781 787
e 782 981
e 783 911
e 783 989
e 784 851
e 785 956
e 785 811
e 789 906
e 790 910
e 790 827
e 791 977
e 791 928
e 791 927
e 794 984
e 794 856
e 794 838
e 794 811
e 798 878
e 798 936
e 799 982
e 801 910
e 801 919
e 803 921
e 804 954
e 805 838
e 805 877
e 807 934
e 807 982
e 807 852
e 810 994
e 810 819
e 811 887
e 811 965
e 814 974
e 814 884
e 814 928
e 816 895
e 819 989
e 820 859
e 820 890
e 821 854
e 823 903
e 826 839
e 830 962
e 830 849
e 839 881
e 841 983
e 842 878
e 847 859
e 849 906
e 852 979
e 856 878
e 859 969
e 864 901
e 866 992
e 866 874
e 870 954
e 874 940
e 876 971
e 878 908
e 879 893
e 881 936
e 886 942
e 888 980
e 889 999
e 889 901
e 890 966
e 895 939
e 896 995
e 897 924
e 897 956
e 898 997
e 898 936
e 899 977
e 900 957
e 901 971
e 907 970
e 907 990
e 908 910
e 909 921
e 909 980
e 910 918
e 910 939
e 910 932
e 911 962
e 911 928
e 916 925
e 919 971
e 919 948
e 921 967
e 928 934
e 928 966
e 930 961
e 933 998
e 934 978
e 937 957
e 950 981
e 975 993
e 984 995
e 990 991
