txt_Ins/graph-1000-430.txt
n 1000
e 0 926
e 0 78
e 0 714
e 0 841
e 3 520
e 3 792
e 3 455
e 3 782
e 3 922
e 3 981
e 5 641
e 5 243
e 5 329
e 5 160
e 5 746
e 7 878
e 7 479
e 7 26
e 7 378
e 8 848
e 8 261
e 8 356
e 8 563
e 9 218
e 9 174
e 9 285
e 10 325
e 10 552
e 10 787
e 10 19
e 10 562
e 11 381
e 11 187
e 11 585
e 11 625
e 12 897
e 12 849
e 12 704
e 13 563
e 13 713
e 13 449
e 13 122
e 13 236
e 14 952
e 14 186
e 14 409
e 14 883
e 14 122
e 15 838
e 15 274
e 15 111
e 16 50
e 16 304
e 16 157
e 17 900
e 17 538
e 17 185
e 17 424
e 17 646
e 17 212
e 18 128
e 18 343
e 18 354
e 18 518
e 18 578
e 19 784
e 19 461
e 19 44
e 19 506
e 22 867
e 22 156
e 22 241
e 23 215
e 23 324
e 23 751
e 23 396
e 24 293
e 24 722
e 24 38
e 26 574
e 26 103
e 27 691
e 27 847
e 27 99
e 27 555
e 27 708
e 28 514
e 28 792
e 28 921
e 29 357
e 29 853
e 29 133
e 29 735
e 30 984
e 30 593
e 30 332
e 30 533
e 30 433
e 31 182
e 31 898
e 31 886
e 31 890
e 32 290
e 32 465
e 32 139
e 32 218
e 33 108
e 33 335
e 33 775
e 33 578
e 33 129
e 33 528
e 34 81
e 34 272
e 34 264
e 34 915
e 35 103
e 35 965
e 35 894
e 36 45
e 36 378
e 36 835
e 36 64
e 37 95
e 37 849
e 37 68
e 37 337
e 38 119
e 38 919
e 38 298
e 38 766
e 38 369
e 39 189
e 39 290
e 39 526
e 39 897
e 40 804
e 40 798
e 40 904
e 40 915
e 41 824
e 41 662
e 41 624
e 41 792
e 43 859
e 43 171
e 43 162
e 43 689
e 44 301
e 44 394
e 44 454
e 45 302
e 45 496
e 45 168
e 46 983
e 46 932
e 46 825
e 47 575
e 47 572
e 47 562
e 47 536
e 49 588
e 49 674
e 49 497
e 49 449
e 49 213
e 49 189
e 49 191
e 50 580
e 50 884
e 50 337
e 50 223
e 51 726
e 51 604
e 51 887
e 51 403
e 52 951
e 52 376
e 52 800
e 52 575
e 52 168
e 53 678
e 53 537
e 53 782
e 53 657
e 53 801
e 53 484
e 54 554
e 54 849
e 54 612
e 54 727
e 55 498
e 55 763
e 55 747
e 55 189
e 55 643
e 56 464
e 56 551
e 56 668
e 56 166
e 56 978
e 56 567
e 56 875
e 56 782
e 56 163
e 56 287
e 58 171
e 58 614
e 58 701
e 58 697
e 61 243
e 61 527
e 61 961
e 61 90
e 61 676
e 62 598
e 62 855
e 62 182
e 62 774
e 63 412
e 63 437
e 63 73
e 63 624
e 63 851
e 64 208
e 64 733
e 64 362
e 64 357
e 65 767
e 65 752
e 65 813
e 67 934
e 67 801
e 67 625
e 67 782
e 67 473
e 67 868
e 67 637
e 67 786
e 68 819
e 68 154
e 68 106
e 68 915
e 69 972
e 69 350
e 69 452
e 70 82
e 70 947
e 70 514
e 70 646
e 70 326
e 70 361
e 70 950
e 71 106
e 71 448
e 71 188
e 71 610
e 72 740
e 72 619
e 72 855
e 73 395
e 73 902
e 74 375
e 74 688
e 74 740
e 74 159
e 76 141
e 76 471
e 76 122
e 76 681
e 76 349
e 76 429
e 76 151
e 76 397
e 77 597
e 77 731
e 77 579
e 77 344
e 78 363
e 78 921
e 78 462
e 79 322
e 79 120
e 79 582
e 80 564
e 80 540
e 80 873
e 81 800
e 81 134
e 81 129
e 82 541
e 82 852
e 82 118
e 84 238
e 84 124
e 84 444
e 85 291
e 85 88
e 85 365
e 85 416
e 85 852
e 85 213
e 86 381
e 86 430
e 86 851
e 88 227
e 88 678
e 88 792
e 89 764
e 89 646
e 89 102
e 90 825
e 90 767
e 90 951
e 90 145
e 90 365
e 90 515
e 92 200
e 92 651
e 92 924
e 92 324
e 93 763
e 93 684
e 93 791
e 93 648
e 93 486
e 93 909
e 93 473
e 95 804
e 95 736
e 97 734
e 97 923
e 97 840
e 97 595
e 97 675
e 97 338
e 98 880
e 98 505
e 98 304
e 98 765
e 99 266
e 99 806
e 99 486
e 99 611
e 102 443
e 102 417
e 102 960
e 103 318
e 103 503
e 103 773
e 103 769
e 103 504
e 106 377
e 106 127
e 106 136
e 106 313
e 106 970
e 106 623
e 106 906
e 108 392
e 108 949
e 109 213
e 109 924
e 109 443
e 109 654
e 109 363
e 111 981
e 111 426
e 112 788
e 112 463
e 112 928
e 114 205
e 114 516
e 114 593
e 114 750
e 115 478
e 115 311
e 115 274
e 115 452
e 116 211
e 116 867
e 116 618
e 116 583
e 116 584
e 117 409
e 117 790
e 117 176
e 118 342
e 118 707
e 119 758
e 119 522
e 119 474
e 120 926
e 120 680
e 120 246
e 120 306
e 121 797
e 121 924
e 121 612
e 121 510
e 122 549
e 122 472
e 124 848
e 124 826
e 124 847
e 125 257
e 125 692
e 125 141
e 126 354
e 126 591
e 126 742
e 126 848
e 126 524
e 126 377
e 127 137
e 127 265
e 127 907
e 127 550
e 127 580
e 128 969
e 128 527
e 128 539
e 128 630
e 129 479
e 129 147
e 129 561
e 129 688
e 129 593
e 129 952
e 129 810
e 131 261
e 131 151
e 131 978
e 132 594
e 132 431
e 132 555
e 133 561
e 133 801
e 134 550
e 134 253
e 135 865
e 135 504
e 135 722
e 135 696
e 135 797
e 135 963
e 135 320
e 136 894
e 136 996
e 136 656
e 137 802
e 137 380
e 137 320
e 137 369
e 137 904
e 137 377
e 138 960
e 138 900
e 138 635
e 138 907
e 138 803
e 138 458
e 139 306
e 139 824
e 139 582
e 140 816
e 140 883
e 140 707
e 140 604
e 140 914
e 141 173
e 141 143
e 141 352
e 141 904
e 141 695
e 141 522
e 141 342
e 142 600
e 142 316
e 142 799
e 143 999
e 143 367
e 145 925
e 145 933
e 145 706
e 146 336
e 146 707
e 146 426
e 146 991
e 147 902
e 147 788
e 147 322
e 147 215
e 148 954
e 148 387
e 148 827
e 148 691
e 148 584
e 148 796
e 148 461
e 149 768
e 149 814
e 149 802
e 149 535
e 151 991
e 151 997
e 151 894
e 151 803
e 152 363
e 152 850
e 152 316
e 152 450
e 153 376
e 153 911
e 153 960
e 153 924
e 154 236
e 154 448
e 154 895
e 154 863
e 154 178
e 154 929
e 154 567
e 156 350
e 156 540
e 156 990
e 156 583
e 157 185
e 157 865
e 157 610
e 157 873
e 159 298
e 159 216
e 159 780
e 159 385
e 159 731
e 159 745
e 159 510
e 160 630
e 160 180
e 160 527
e 160 484
e 161 164
e 161 759
e 161 248
e 162 779
e 162 802
e 162 932
e 162 806
e 162 818
e 162 889
e 163 368
e 163 351
e 163 628
e 163 331
e 164 217
e 164 548
e 166 218
e 166 283
e 166 304
e 166 949
e 168 540
e 168 691
e 168 840
e 168 635
e 169 833
e 169 940
e 169 730
e 169 600
e 169 476
e 170 220
e 170 305
e 170 657
e 170 990
e 170 578
e 170 416
e 171 604
e 171 231
e 171 904
e 171 423
e 172 953
e 172 348
e 172 634
e 172 706
e 172 527
e 172 412
e 173 769
e 173 939
e 173 261
e 173 348
e 173 224
e 174 568
e 174 847
e 176 495
e 176 218
e 176 787
e 176 895
e 176 565
e 176 450
e 177 353
e 177 851
e 177 512
e 177 637
e 177 865
e 178 346
e 178 246
e 178 187
e 179 451
e 179 297
e 179 623
e 179 544
e 179 676
e 180 200
e 180 887
e 180 311
e 180 229
e 180 912
e 182 299
e 182 822
e 182 339
e 182 357
e 183 506
e 183 464
e 183 728
e 184 898
e 184 759
e 184 879
e 184 977
e 184 922
e 185 451
e 185 703
e 185 658
e 185 717
e 186 763
e 186 380
e 186 928
e 187 308
e 187 630
e 187 533
e 187 493
e 187 617
e 188 586
e 188 717
e 188 899
e 188 342
e 188 675
e 188 819
e 189 381
e 189 568
e 189 853
e 189 272
e 191 516
e 191 785
e 191 616
e 191 272
e 191 770
e 191 345
e 191 625
e 193 786
e 193 835
e 193 567
e 195 973
e 195 984
e 195 538
e 195 744
e 197 814
e 197 539
e 197 688
e 197 630
e 197 463
e 197 968
e 197 758
e 198 317
e 198 453
e 198 912
e 200 769
e 201 471
e 201 783
e 201 769
e 201 216
e 203 618
e 203 811
e 203 950
e 203 875
e 203 574
e 203 337
e 205 769
e 205 947
e 205 923
e 205 312
e 206 959
e 206 409
e 206 611
e 208 538
e 208 416
e 208 509
e 211 732
e 211 685
e 211 610
e 211 444
e 211 642
e 212 338
e 212 591
e 212 608
e 212 625
e 213 239
e 213 252
e 213 867
e 213 319
e 213 779
e 213 478
e 215 916
e 215 743
e 216 271
e 216 562
e 217 283
e 217 453
e 217 354
e 218 844
e 218 732
e 218 935
e 218 385
e 220 745
e 220 564
e 220 514
e 223 969
e 223 294
e 224 949
e 224 387
e 224 228
e 224 623
e 224 463
e 225 643
e 225 337
e 225 804
e 225 293
e 225 471
e 226 252
e 226 799
e 226 607
e 226 844
e 226 734
e 226 833
e 227 482
e 227 494
e 227 544
e 227 393
e 227 959
e 228 319
e 228 266
e 229 295
e 229 291
e 229 829
e 230 575
e 230 857
e 230 976
e 231 695
e 231 274
e 231 326
e 231 800
e 231 359
e 231 276
e 232 935
e 232 548
e 232 431
e 234 910
e 234 635
e 234 456
e 234 512
e 236 613
e 236 608
e 236 951
e 237 406
e 237 465
e 237 470
e 237 533
e 237 603
e 238 934
e 238 965
e 238 929
e 239 549
e 239 504
e 240 344
e 240 617
e 240 728
e 241 695
e 241 819
e 243 899
e 243 379
e 243 941
e 243 818
e 244 249
e 244 827
e 244 552
e 244 892
e 244 436
e 245 999
e 245 676
e 245 305
e 246 780
e 246 670
e 246 462
e 246 274
e 246 763
e 246 919
e 247 657
e 247 815
e 247 908
e 247 743
e 248 290
e 248 352
e 248 568
e 248 454
e 248 327
e 248 696
e 249 592
e 249 554
e 249 384
e 250 940
e 250 900
e 250 973
e 251 553
e 251 959
e 251 940
e 252 909
e 253 262
e 253 542
e 255 318
e 255 965
e 255 419
e 255 351
e 255 962
e 255 986
e 256 430
e 256 553
e 256 894
e 256 721
e 256 634
e 256 417
e 257 343
e 257 511
e 257 409
e 257 451
e 257 859
e 258 324
e 258 894
e 258 762
e 258 910
e 258 885
e 258 362
e 259 447
e 259 385
e 259 950
e 259 742
e 260 424
e 260 365
e 260 806
e 260 330
e 260 430
e 260 375
e 261 642
e 261 674
e 262 543
e 262 304
e 262 764
e 262 960
e 262 940
e 263 338
e 263 943
e 263 431
e 264 306
e 264 561
e 264 609
e 264 549
e 265 287
e 265 759
e 265 408
e 265 553
e 265 540
e 266 754
e 269 884
e 269 465
e 269 910
e 269 575
e 269 713
e 270 697
e 270 574
e 270 476
e 270 444
e 270 855
e 270 640
e 270 388
e 270 386
e 271 882
e 271 290
e 271 509
e 272 624
e 272 528
e 272 415
e 272 896
e 273 365
e 273 890
e 273 566
e 274 451
e 274 469
e 276 855
e 276 503
e 276 616
e 276 458
e 276 414
e 277 758
e 277 281
e 277 785
e 281 761
e 281 439
e 281 680
e 282 654
e 282 875
e 282 775
e 283 576
e 283 416
e 283 747
e 283 713
e 285 595
e 285 463
e 285 309
e 285 728
e 287 355
e 287 542
e 287 908
e 287 554
e 287 711
e 289 855
e 289 381
e 289 786
e 290 520
e 290 553
e 290 998
e 291 363
e 291 963
e 291 844
e 291 676
e 291 426
e 293 838
e 293 982
e 293 551
e 293 750
e 293 496
e 293 404
e 293 949
e 294 904
e 294 540
e 294 614
e 294 607
e 295 998
e 295 545
e 295 636
e 295 752
e 297 935
e 297 917
e 298 515
e 299 917
e 299 523
e 299 840
e 299 809
e 299 791
e 299 717
e 299 659
e 299 591
e 299 563
e 301 634
e 301 857
e 301 674
e 301 920
e 302 561
e 302 573
e 304 353
e 304 476
e 305 726
e 306 724
e 306 361
e 306 798
e 308 732
e 308 403
e 308 554
e 309 510
e 309 419
e 309 612
e 311 463
e 311 326
e 311 424
e 311 470
e 312 608
e 312 675
e 312 436
e 312 986
e 312 681
e 312 359
e 312 863
e 313 774
e 313 680
e 313 887
e 313 412
e 315 964
e 315 633
e 315 597
e 316 806
e 316 929
e 317 485
e 317 456
e 318 815
e 318 909
e 319 620
e 319 562
e 319 526
e 320 879
e 320 362
e 322 679
e 322 660
e 324 999
e 324 824
e 324 933
e 325 766
e 325 536
e 326 956
e 327 569
e 327 894
e 328 478
e 328 449
e 328 570
e 328 473
e 329 736
e 329 462
e 329 338
e 329 954
e 329 541
e 330 714
e 330 444
e 330 674
e 331 797
e 331 569
e 331 542
e 332 537
e 332 447
e 332 609
e 335 447
e 335 495
e 335 796
e 335 582
e 336 659
e 336 954
e 336 923
e 337 730
e 337 413
e 338 693
e 338 459
e 338 594
e 338 462
e 338 691
e 339 971
e 339 718
e 339 825
e 342 714
e 342 374
e 343 408
e 343 582
e 343 713
e 343 404
e 344 397
e 344 663
e 344 482
e 344 769
e 344 765
e 345 550
e 345 505
e 345 684
e 346 450
e 346 841
e 346 484
e 346 588
e 348 726
e 348 868
e 348 570
e 348 550
e 349 960
e 349 914
e 349 497
e 349 978
e 350 406
e 351 535
e 351 833
e 351 921
e 351 474
e 352 585
e 352 410
e 352 579
e 353 535
e 353 846
e 353 932
e 354 876
e 354 748
e 354 505
e 354 534
e 355 542
e 355 410
e 356 714
e 356 511
e 359 743
e 359 878
e 359 761
e 359 711
e 359 403
e 359 918
e 361 443
e 361 791
e 361 774
e 363 556
e 365 984
e 367 910
e 367 714
e 367 586
e 368 455
e 368 602
e 368 688
e 369 633
e 369 696
e 369 788
e 370 478
e 370 600
e 370 444
e 374 379
e 374 926
e 374 992
e 374 801
e 375 763
e 375 895
e 376 464
e 376 506
e 376 735
e 376 454
e 376 646
e 376 554
e 377 555
e 378 934
e 378 476
e 379 780
e 380 575
e 380 751
e 380 811
e 381 694
e 384 508
e 384 648
e 384 759
e 384 993
e 385 702
e 386 666
e 386 949
e 386 703
e 386 514
e 387 643
e 387 580
e 387 819
e 388 552
e 388 658
e 388 788
e 388 768
e 388 787
e 392 410
e 392 897
e 392 670
e 393 620
e 393 421
e 394 651
e 394 545
e 394 670
e 394 745
e 394 536
e 395 536
e 395 809
e 396 915
e 396 516
e 396 916
e 397 594
e 397 616
e 397 438
e 398 484
e 398 759
e 398 603
e 399 924
e 399 685
e 399 565
e 399 533
e 399 782
e 403 712
e 403 694
e 403 885
e 404 955
e 405 877
e 405 988
e 405 564
e 405 869
e 405 766
e 405 970
e 406 651
e 408 437
e 408 904
e 408 859
e 409 453
e 409 889
e 409 993
e 409 563
e 410 973
e 410 748
e 412 425
e 413 959
e 413 608
e 414 805
e 414 666
e 414 600
e 414 769
e 414 632
e 414 635
e 414 456
e 415 846
e 415 764
e 416 584
e 416 719
e 416 997
e 416 925
e 417 471
e 417 614
e 419 668
e 419 518
e 420 728
e 420 634
e 420 692
e 421 897
e 421 824
e 421 940
e 421 528
e 423 867
e 423 497
e 423 813
e 424 664
e 424 800
e 424 663
e 424 540
e 425 655
e 425 648
e 425 887
e 426 837
e 426 509
e 428 633
e 428 451
e 428 740
e 428 645
e 428 520
e 429 998
e 429 715
e 430 983
e 430 701
e 430 811
e 430 718
e 431 452
e 431 527
e 431 868
e 431 882
e 433 768
e 433 783
e 433 850
e 434 868
e 434 443
e 434 666
e 434 453
e 436 579
e 436 713
e 436 762
e 437 541
e 437 805
e 437 804
e 437 902
e 438 607
e 438 659
e 438 837
e 438 786
e 439 543
e 439 916
e 439 804
e 441 914
e 441 528
e 441 978
e 443 857
e 443 576
e 443 885
e 444 745
e 444 617
e 444 964
e 447 851
e 448 992
e 450 912
e 450 503
e 450 618
e 451 752
e 452 949
e 452 473
e 452 462
e 453 493
e 453 927
e 453 701
e 453 619
e 453 962
e 453 738
e 454 941
e 454 904
e 455 829
e 455 459
e 458 766
e 458 485
e 459 574
e 461 681
e 461 873
e 461 715
e 461 630
e 461 550
e 462 763
e 462 929
e 463 938
e 463 873
e 463 486
e 464 877
e 465 783
e 465 858
e 465 822
e 467 623
e 467 761
e 467 561
e 467 877
e 469 510
e 469 614
e 469 657
e 470 598
e 470 929
e 470 567
e 470 963
e 471 576
e 471 781
e 471 762
e 472 704
e 472 972
e 474 800
e 474 929
e 476 819
e 476 615
e 476 955
e 479 913
e 479 514
e 479 642
e 479 485
e 482 696
e 482 493
e 483 788
e 483 573
e 483 742
e 485 659
e 485 897
e 486 660
e 486 928
e 493 931
e 493 909
e 494 880
e 494 613
e 494 920
e 494 512
e 495 738
e 496 628
e 496 919
e 497 767
e 497 649
e 497 873
e 498 873
e 498 590
e 498 892
e 503 715
e 503 986
e 503 838
e 504 886
e 504 587
e 504 745
e 504 674
e 505 911
e 505 506
e 506 895
e 506 938
e 506 994
e 508 540
e 508 973
e 509 960
e 509 693
e 509 632
e 510 539
e 510 655
e 510 921
e 510 622
e 511 977
e 514 939
e 514 849
e 515 800
e 515 599
e 516 646
e 516 773
e 518 748
e 518 756
e 519 780
e 519 714
e 519 743
e 520 637
e 520 623
e 520 524
e 522 879
e 522 594
e 523 822
e 523 877
e 523 896
e 523 604
e 524 966
e 524 918
e 526 632
e 527 952
e 533 738
e 533 761
e 534 611
e 534 667
e 534 742
e 534 976
e 535 799
e 535 566
e 535 616
e 537 847
e 537 729
e 537 879
e 537 664
e 538 728
e 538 575
e 538 984
e 539 779
e 541 748
e 543 912
e 544 611
e 544 943
e 545 594
e 545 553
e 545 976
e 545 735
e 548 692
e 548 943
e 549 841
e 549 868
e 549 600
e 549 939
e 550 855
e 550 816
e 551 849
e 552 714
e 554 758
e 555 784
e 555 846
e 555 585
e 556 791
e 556 588
e 561 592
e 561 670
e 562 844
e 562 637
e 562 684
e 563 786
e 563 668
e 563 970
e 564 565
e 564 996
e 564 779
e 564 578
e 565 602
e 565 838
e 566 746
e 566 983
e 566 613
e 567 826
e 567 904
e 569 655
e 570 662
e 570 656
e 570 600
e 570 962
e 572 974
e 572 935
e 573 820
e 574 816
e 574 778
e 574 859
e 574 849
e 574 930
e 575 592
e 576 778
e 576 785
e 578 746
e 578 756
e 578 888
e 579 736
e 580 979
e 580 822
e 582 599
e 582 751
e 582 974
e 583 674
e 583 887
e 584 833
e 585 799
e 585 992
e 586 729
e 586 719
e 586 786
e 587 748
e 587 599
e 587 885
e 590 663
e 590 850
e 590 600
e 591 936
e 592 604
e 593 811
e 593 826
e 595 870
e 595 941
e 597 927
e 598 731
e 599 989
e 599 899
e 600 980
e 600 914
e 602 818
e 603 748
e 603 895
e 603 785
e 603 758
e 604 870
e 608 764
e 608 614
e 609 743
e 609 668
e 609 950
e 610 930
e 610 833
e 611 768
e 611 697
e 612 858
e 612 915
e 612 950
e 614 742
e 615 984
e 615 692
e 615 980
e 616 783
e 616 708
e 617 873
e 618 976
e 619 815
e 620 678
e 620 928
e 622 930
e 622 658
e 624 744
e 624 962
e 628 972
e 630 790
e 630 849
e 632 764
e 633 651
e 633 717
e 633 710
e 634 899
e 634 889
e 634 768
e 634 796
e 635 789
e 636 667
e 636 989
e 637 846
e 640 800
e 640 896
e 641 982
e 641 657
e 642 729
e 643 674
e 645 693
e 645 969
e 649 917
e 649 927
e 651 899
e 653 982
e 653 744
e 653 759
e 653 865
e 654 770
e 655 912
e 655 849
e 656 869
e 656 931
e 656 990
e 658 679
e 659 798
e 660 759
e 660 995
e 660 909
e 662 960
e 662 806
e 662 968
e 662 995
e 663 837
e 663 778
e 663 766
e 664 971
e 667 878
e 668 814
e 668 971
e 668 798
e 668 851
e 672 843
e 672 913
e 672 912
e 674 909
e 674 934
e 674 848
e 675 931
e 675 925
e 675 805
e 676 939
e 676 859
e 678 809
e 678 815
e 679 936
e 680 907
e 681 826
e 684 976
e 684 728
e 685 931
e 685 929
e 685 999
e 685 833
e 687 695
e 687 773
e 687 825
e 688 843
e 688 922
e 689 963
e 689 898
e 689 827
e 692 896
e 692 719
e 693 734
e 694 789
e 696 999
e 696 844
e 696 909
e 697 894
e 697 928
e 701 914
e 701 815
e 701 766
e 701 810
e 702 889
e 702 793
e 703 882
e 703 905
e 704 711
e 704 756
e 706 966
e 708 956
e 708 888
e 710 722
e 710 762
e 712 972
e 712 833
e 712 988
e 714 793
e 714 876
e 715 732
e 715 820
e 715 750
e 715 781
e 718 838
e 721 911
e 721 746
e 724 902
e 724 770
e 724 996
e 726 919
e 727 959
e 727 835
e 729 775
e 730 955
e 732 822
e 732 770
e 733 857
e 733 988
e 734 912
e 735 927
e 736 849
e 738 787
e 738 880
e 740 888
e 744 755
e 745 964
e 745 972
e 745 908
e 747 932
e 747 787
e 748 843
e 751 974
e 751 859
e 754 884
e 754 995
e 755 890
e 755 758
e 756 990
e 758 913
e 758 998
e 758 852
e 762 973
e 764 919
e 765 774
e 765 815
e 765 974
e 766 773
e 767 870
e 768 929
e 770 914
e 773 802
e 778 846
e 778 915
e 779 799
e 780 827
e 780 786
e 781 980
e 782 910
e 782 988
e 783 850
e 784 955
e 784 810
e 788 905
e 789 909
e 789 826
e 790 976
e 790 927
e 790 926
e 793 983
e 793 855
e 793 837
e 793 810
e 797 877
e 797 935
e 798 981
e 800 909
e 800 918
e 802 920
e 803 953
e 804 837
e 804 876
e 806 933
e 806 981
e 806 851
e 809 993
e 809 818
e 810 886
e 810 964
e 813 973
e 813 883
e 813 927
e 815 894
e 818 988
e 819 858
e 819 889
e 820 853
e 822 902
e 825 838
e 829 961
e 829 848
e 838 880
e 840 982
e 841 877
e 846 858
e 848 905
e 851 978
e 855 877
e 858 968
e 863 900
e 865 991
e 865 873
e 869 953
e 873 939
e 875 970
e 877 907
e 878 892
e 880 935
e 885 941
e 887 979
e 888 998
e 888 900
e 889 965
e 894 938
e 895 994
e 896 923
e 896 955
e 897 996
e 897 935
e 898 976
e 899 956
e 900 970
e 906 969
e 906 989
e 907 909
e 908 920
e 908 979
e 909 917
e 909 938
e 909 931
e 910 961
e 910 927
e 915 924
e 918 970
e 918 947
e 920 966
e 927 933
e 927 965
e 929 960
e 932 997
e 933 977
e 936 956
e 949 980
e 974 992
e 983 994
e 989 990
